30
0   76   78
1   76   77
2   76   77
3   77   77
4   78   77
5   76   76
6   77   76
7   77   77
8   78   76
9   78   77
10   39   40
11   38   40
12   38   39
13   38   38
14   38   40
15   40   38
16   39   40
17   38   39
18   40   38
19   40   38
20   2   2
21   3   1
22   2   1
23   3   1
24   2   2
25   1   2
26   3   3
27   1   1
28   3   3
29   2   1
150
